Minimize 
obj: X_0_0+X_1_0+X_2_0+X_3_0+X_4_0+X_5_0+X_6_0+X_7_0
Subject To 
X_0_0 - X_0_1 + A_0_0 <= 1 
X_0_2 -A_0_0 <= 0  
X_0_3 -A_0_0 <= 0  
X_0_4 -A_0_0 <= 0  
X_0_5 -A_0_0 <= 0  
X_0_6 -A_0_0 <= 0  
X_0_7 -A_0_0 <= 0  
X_0_1 - X_0_2 + A_0_1 <= 1 
X_0_3 -A_0_1 <= 0  
X_0_4 -A_0_1 <= 0  
X_0_5 -A_0_1 <= 0  
X_0_6 -A_0_1 <= 0  
X_0_7 -A_0_1 <= 0  
X_0_2 - X_0_3 + A_0_2 <= 1 
X_0_4 -A_0_2 <= 0  
X_0_5 -A_0_2 <= 0  
X_0_6 -A_0_2 <= 0  
X_0_7 -A_0_2 <= 0  
X_0_3 - X_0_4 + A_0_3 <= 1 
X_0_5 -A_0_3 <= 0  
X_0_6 -A_0_3 <= 0  
X_0_7 -A_0_3 <= 0  
X_0_4 - X_0_5 + A_0_4 <= 1 
X_0_6 -A_0_4 <= 0  
X_0_7 -A_0_4 <= 0  
X_0_5 - X_0_6 + A_0_5 <= 1 
X_0_7 -A_0_5 <= 0  
X_0_6 - X_0_7 + A_0_6 <= 1 
X_1_0 - X_1_1 + A_1_0 <= 1 
X_1_2 -A_1_0 <= 0  
X_1_3 -A_1_0 <= 0  
X_1_4 -A_1_0 <= 0  
X_1_5 -A_1_0 <= 0  
X_1_6 -A_1_0 <= 0  
X_1_7 -A_1_0 <= 0  
X_1_1 - X_1_2 + A_1_1 <= 1 
X_1_3 -A_1_1 <= 0  
X_1_4 -A_1_1 <= 0  
X_1_5 -A_1_1 <= 0  
X_1_6 -A_1_1 <= 0  
X_1_7 -A_1_1 <= 0  
X_1_2 - X_1_3 + A_1_2 <= 1 
X_1_4 -A_1_2 <= 0  
X_1_5 -A_1_2 <= 0  
X_1_6 -A_1_2 <= 0  
X_1_7 -A_1_2 <= 0  
X_1_3 - X_1_4 + A_1_3 <= 1 
X_1_5 -A_1_3 <= 0  
X_1_6 -A_1_3 <= 0  
X_1_7 -A_1_3 <= 0  
X_1_4 - X_1_5 + A_1_4 <= 1 
X_1_6 -A_1_4 <= 0  
X_1_7 -A_1_4 <= 0  
X_1_5 - X_1_6 + A_1_5 <= 1 
X_1_7 -A_1_5 <= 0  
X_1_6 - X_1_7 + A_1_6 <= 1 
X_2_0 - X_2_1 + A_2_0 <= 1 
X_2_2 -A_2_0 <= 0  
X_2_3 -A_2_0 <= 0  
X_2_4 -A_2_0 <= 0  
X_2_5 -A_2_0 <= 0  
X_2_6 -A_2_0 <= 0  
X_2_7 -A_2_0 <= 0  
X_2_1 - X_2_2 + A_2_1 <= 1 
X_2_3 -A_2_1 <= 0  
X_2_4 -A_2_1 <= 0  
X_2_5 -A_2_1 <= 0  
X_2_6 -A_2_1 <= 0  
X_2_7 -A_2_1 <= 0  
X_2_2 - X_2_3 + A_2_2 <= 1 
X_2_4 -A_2_2 <= 0  
X_2_5 -A_2_2 <= 0  
X_2_6 -A_2_2 <= 0  
X_2_7 -A_2_2 <= 0  
X_2_3 - X_2_4 + A_2_3 <= 1 
X_2_5 -A_2_3 <= 0  
X_2_6 -A_2_3 <= 0  
X_2_7 -A_2_3 <= 0  
X_2_4 - X_2_5 + A_2_4 <= 1 
X_2_6 -A_2_4 <= 0  
X_2_7 -A_2_4 <= 0  
X_2_5 - X_2_6 + A_2_5 <= 1 
X_2_7 -A_2_5 <= 0  
X_2_6 - X_2_7 + A_2_6 <= 1 
X_3_0 - X_3_1 + A_3_0 <= 1 
X_3_2 -A_3_0 <= 0  
X_3_3 -A_3_0 <= 0  
X_3_4 -A_3_0 <= 0  
X_3_5 -A_3_0 <= 0  
X_3_6 -A_3_0 <= 0  
X_3_7 -A_3_0 <= 0  
X_3_1 - X_3_2 + A_3_1 <= 1 
X_3_3 -A_3_1 <= 0  
X_3_4 -A_3_1 <= 0  
X_3_5 -A_3_1 <= 0  
X_3_6 -A_3_1 <= 0  
X_3_7 -A_3_1 <= 0  
X_3_2 - X_3_3 + A_3_2 <= 1 
X_3_4 -A_3_2 <= 0  
X_3_5 -A_3_2 <= 0  
X_3_6 -A_3_2 <= 0  
X_3_7 -A_3_2 <= 0  
X_3_3 - X_3_4 + A_3_3 <= 1 
X_3_5 -A_3_3 <= 0  
X_3_6 -A_3_3 <= 0  
X_3_7 -A_3_3 <= 0  
X_3_4 - X_3_5 + A_3_4 <= 1 
X_3_6 -A_3_4 <= 0  
X_3_7 -A_3_4 <= 0  
X_3_5 - X_3_6 + A_3_5 <= 1 
X_3_7 -A_3_5 <= 0  
X_3_6 - X_3_7 + A_3_6 <= 1 
X_4_0 - X_4_1 + A_4_0 <= 1 
X_4_2 -A_4_0 <= 0  
X_4_3 -A_4_0 <= 0  
X_4_4 -A_4_0 <= 0  
X_4_5 -A_4_0 <= 0  
X_4_6 -A_4_0 <= 0  
X_4_7 -A_4_0 <= 0  
X_4_1 - X_4_2 + A_4_1 <= 1 
X_4_3 -A_4_1 <= 0  
X_4_4 -A_4_1 <= 0  
X_4_5 -A_4_1 <= 0  
X_4_6 -A_4_1 <= 0  
X_4_7 -A_4_1 <= 0  
X_4_2 - X_4_3 + A_4_2 <= 1 
X_4_4 -A_4_2 <= 0  
X_4_5 -A_4_2 <= 0  
X_4_6 -A_4_2 <= 0  
X_4_7 -A_4_2 <= 0  
X_4_3 - X_4_4 + A_4_3 <= 1 
X_4_5 -A_4_3 <= 0  
X_4_6 -A_4_3 <= 0  
X_4_7 -A_4_3 <= 0  
X_4_4 - X_4_5 + A_4_4 <= 1 
X_4_6 -A_4_4 <= 0  
X_4_7 -A_4_4 <= 0  
X_4_5 - X_4_6 + A_4_5 <= 1 
X_4_7 -A_4_5 <= 0  
X_4_6 - X_4_7 + A_4_6 <= 1 
X_5_0 - X_5_1 + A_5_0 <= 1 
X_5_2 -A_5_0 <= 0  
X_5_3 -A_5_0 <= 0  
X_5_4 -A_5_0 <= 0  
X_5_5 -A_5_0 <= 0  
X_5_6 -A_5_0 <= 0  
X_5_7 -A_5_0 <= 0  
X_5_1 - X_5_2 + A_5_1 <= 1 
X_5_3 -A_5_1 <= 0  
X_5_4 -A_5_1 <= 0  
X_5_5 -A_5_1 <= 0  
X_5_6 -A_5_1 <= 0  
X_5_7 -A_5_1 <= 0  
X_5_2 - X_5_3 + A_5_2 <= 1 
X_5_4 -A_5_2 <= 0  
X_5_5 -A_5_2 <= 0  
X_5_6 -A_5_2 <= 0  
X_5_7 -A_5_2 <= 0  
X_5_3 - X_5_4 + A_5_3 <= 1 
X_5_5 -A_5_3 <= 0  
X_5_6 -A_5_3 <= 0  
X_5_7 -A_5_3 <= 0  
X_5_4 - X_5_5 + A_5_4 <= 1 
X_5_6 -A_5_4 <= 0  
X_5_7 -A_5_4 <= 0  
X_5_5 - X_5_6 + A_5_5 <= 1 
X_5_7 -A_5_5 <= 0  
X_5_6 - X_5_7 + A_5_6 <= 1 
X_6_0 - X_6_1 + A_6_0 <= 1 
X_6_2 -A_6_0 <= 0  
X_6_3 -A_6_0 <= 0  
X_6_4 -A_6_0 <= 0  
X_6_5 -A_6_0 <= 0  
X_6_6 -A_6_0 <= 0  
X_6_7 -A_6_0 <= 0  
X_6_1 - X_6_2 + A_6_1 <= 1 
X_6_3 -A_6_1 <= 0  
X_6_4 -A_6_1 <= 0  
X_6_5 -A_6_1 <= 0  
X_6_6 -A_6_1 <= 0  
X_6_7 -A_6_1 <= 0  
X_6_2 - X_6_3 + A_6_2 <= 1 
X_6_4 -A_6_2 <= 0  
X_6_5 -A_6_2 <= 0  
X_6_6 -A_6_2 <= 0  
X_6_7 -A_6_2 <= 0  
X_6_3 - X_6_4 + A_6_3 <= 1 
X_6_5 -A_6_3 <= 0  
X_6_6 -A_6_3 <= 0  
X_6_7 -A_6_3 <= 0  
X_6_4 - X_6_5 + A_6_4 <= 1 
X_6_6 -A_6_4 <= 0  
X_6_7 -A_6_4 <= 0  
X_6_5 - X_6_6 + A_6_5 <= 1 
X_6_7 -A_6_5 <= 0  
X_6_6 - X_6_7 + A_6_6 <= 1 
X_7_0 - X_7_1 + A_7_0 <= 1 
X_7_2 -A_7_0 <= 0  
X_7_3 -A_7_0 <= 0  
X_7_4 -A_7_0 <= 0  
X_7_5 -A_7_0 <= 0  
X_7_6 -A_7_0 <= 0  
X_7_7 -A_7_0 <= 0  
X_7_1 - X_7_2 + A_7_1 <= 1 
X_7_3 -A_7_1 <= 0  
X_7_4 -A_7_1 <= 0  
X_7_5 -A_7_1 <= 0  
X_7_6 -A_7_1 <= 0  
X_7_7 -A_7_1 <= 0  
X_7_2 - X_7_3 + A_7_2 <= 1 
X_7_4 -A_7_2 <= 0  
X_7_5 -A_7_2 <= 0  
X_7_6 -A_7_2 <= 0  
X_7_7 -A_7_2 <= 0  
X_7_3 - X_7_4 + A_7_3 <= 1 
X_7_5 -A_7_3 <= 0  
X_7_6 -A_7_3 <= 0  
X_7_7 -A_7_3 <= 0  
X_7_4 - X_7_5 + A_7_4 <= 1 
X_7_6 -A_7_4 <= 0  
X_7_7 -A_7_4 <= 0  
X_7_5 - X_7_6 + A_7_5 <= 1 
X_7_7 -A_7_5 <= 0  
X_7_6 - X_7_7 + A_7_6 <= 1 

X_0_0 + X_1_0 - PAIR_0_1_0 <= 1 
PAIR_0_1_0 - X_0_0  <= 0
PAIR_0_1_0 - X_1_0  <= 0

X_0_1 + X_1_1 - PAIR_0_1_1 <= 1 
PAIR_0_1_1 - X_0_1  <= 0
PAIR_0_1_1 - X_1_1  <= 0

X_0_2 + X_1_2 - PAIR_0_1_2 <= 1 
PAIR_0_1_2 - X_0_2  <= 0
PAIR_0_1_2 - X_1_2  <= 0

X_0_3 + X_1_3 - PAIR_0_1_3 <= 1 
PAIR_0_1_3 - X_0_3  <= 0
PAIR_0_1_3 - X_1_3  <= 0

X_0_4 + X_1_4 - PAIR_0_1_4 <= 1 
PAIR_0_1_4 - X_0_4  <= 0
PAIR_0_1_4 - X_1_4  <= 0

X_0_5 + X_1_5 - PAIR_0_1_5 <= 1 
PAIR_0_1_5 - X_0_5  <= 0
PAIR_0_1_5 - X_1_5  <= 0

X_0_6 + X_1_6 - PAIR_0_1_6 <= 1 
PAIR_0_1_6 - X_0_6  <= 0
PAIR_0_1_6 - X_1_6  <= 0

X_0_7 + X_1_7 - PAIR_0_1_7 <= 1 
PAIR_0_1_7 - X_0_7  <= 0
PAIR_0_1_7 - X_1_7  <= 0

PAIR_0_1 :PAIR_0_1_0+PAIR_0_1_1+PAIR_0_1_2+PAIR_0_1_3+PAIR_0_1_4+PAIR_0_1_5+PAIR_0_1_6+PAIR_0_1_7 >= 1
X_0_0 + X_2_0 - PAIR_0_2_0 <= 1 
PAIR_0_2_0 - X_0_0  <= 0
PAIR_0_2_0 - X_2_0  <= 0

X_0_1 + X_2_1 - PAIR_0_2_1 <= 1 
PAIR_0_2_1 - X_0_1  <= 0
PAIR_0_2_1 - X_2_1  <= 0

X_0_2 + X_2_2 - PAIR_0_2_2 <= 1 
PAIR_0_2_2 - X_0_2  <= 0
PAIR_0_2_2 - X_2_2  <= 0

X_0_3 + X_2_3 - PAIR_0_2_3 <= 1 
PAIR_0_2_3 - X_0_3  <= 0
PAIR_0_2_3 - X_2_3  <= 0

X_0_4 + X_2_4 - PAIR_0_2_4 <= 1 
PAIR_0_2_4 - X_0_4  <= 0
PAIR_0_2_4 - X_2_4  <= 0

X_0_5 + X_2_5 - PAIR_0_2_5 <= 1 
PAIR_0_2_5 - X_0_5  <= 0
PAIR_0_2_5 - X_2_5  <= 0

X_0_6 + X_2_6 - PAIR_0_2_6 <= 1 
PAIR_0_2_6 - X_0_6  <= 0
PAIR_0_2_6 - X_2_6  <= 0

X_0_7 + X_2_7 - PAIR_0_2_7 <= 1 
PAIR_0_2_7 - X_0_7  <= 0
PAIR_0_2_7 - X_2_7  <= 0

PAIR_0_2 :PAIR_0_2_0+PAIR_0_2_1+PAIR_0_2_2+PAIR_0_2_3+PAIR_0_2_4+PAIR_0_2_5+PAIR_0_2_6+PAIR_0_2_7 >= 1
X_0_0 + X_3_0 - PAIR_0_3_0 <= 1 
PAIR_0_3_0 - X_0_0  <= 0
PAIR_0_3_0 - X_3_0  <= 0

X_0_1 + X_3_1 - PAIR_0_3_1 <= 1 
PAIR_0_3_1 - X_0_1  <= 0
PAIR_0_3_1 - X_3_1  <= 0

X_0_2 + X_3_2 - PAIR_0_3_2 <= 1 
PAIR_0_3_2 - X_0_2  <= 0
PAIR_0_3_2 - X_3_2  <= 0

X_0_3 + X_3_3 - PAIR_0_3_3 <= 1 
PAIR_0_3_3 - X_0_3  <= 0
PAIR_0_3_3 - X_3_3  <= 0

X_0_4 + X_3_4 - PAIR_0_3_4 <= 1 
PAIR_0_3_4 - X_0_4  <= 0
PAIR_0_3_4 - X_3_4  <= 0

X_0_5 + X_3_5 - PAIR_0_3_5 <= 1 
PAIR_0_3_5 - X_0_5  <= 0
PAIR_0_3_5 - X_3_5  <= 0

X_0_6 + X_3_6 - PAIR_0_3_6 <= 1 
PAIR_0_3_6 - X_0_6  <= 0
PAIR_0_3_6 - X_3_6  <= 0

X_0_7 + X_3_7 - PAIR_0_3_7 <= 1 
PAIR_0_3_7 - X_0_7  <= 0
PAIR_0_3_7 - X_3_7  <= 0

PAIR_0_3 :PAIR_0_3_0+PAIR_0_3_1+PAIR_0_3_2+PAIR_0_3_3+PAIR_0_3_4+PAIR_0_3_5+PAIR_0_3_6+PAIR_0_3_7 >= 1
X_0_0 + X_4_0 - PAIR_0_4_0 <= 1 
PAIR_0_4_0 - X_0_0  <= 0
PAIR_0_4_0 - X_4_0  <= 0

X_0_1 + X_4_1 - PAIR_0_4_1 <= 1 
PAIR_0_4_1 - X_0_1  <= 0
PAIR_0_4_1 - X_4_1  <= 0

X_0_2 + X_4_2 - PAIR_0_4_2 <= 1 
PAIR_0_4_2 - X_0_2  <= 0
PAIR_0_4_2 - X_4_2  <= 0

X_0_3 + X_4_3 - PAIR_0_4_3 <= 1 
PAIR_0_4_3 - X_0_3  <= 0
PAIR_0_4_3 - X_4_3  <= 0

X_0_4 + X_4_4 - PAIR_0_4_4 <= 1 
PAIR_0_4_4 - X_0_4  <= 0
PAIR_0_4_4 - X_4_4  <= 0

X_0_5 + X_4_5 - PAIR_0_4_5 <= 1 
PAIR_0_4_5 - X_0_5  <= 0
PAIR_0_4_5 - X_4_5  <= 0

X_0_6 + X_4_6 - PAIR_0_4_6 <= 1 
PAIR_0_4_6 - X_0_6  <= 0
PAIR_0_4_6 - X_4_6  <= 0

X_0_7 + X_4_7 - PAIR_0_4_7 <= 1 
PAIR_0_4_7 - X_0_7  <= 0
PAIR_0_4_7 - X_4_7  <= 0

PAIR_0_4 :PAIR_0_4_0+PAIR_0_4_1+PAIR_0_4_2+PAIR_0_4_3+PAIR_0_4_4+PAIR_0_4_5+PAIR_0_4_6+PAIR_0_4_7 >= 1
X_0_0 + X_6_0 - PAIR_0_6_0 <= 1 
PAIR_0_6_0 - X_0_0  <= 0
PAIR_0_6_0 - X_6_0  <= 0

X_0_1 + X_6_1 - PAIR_0_6_1 <= 1 
PAIR_0_6_1 - X_0_1  <= 0
PAIR_0_6_1 - X_6_1  <= 0

X_0_2 + X_6_2 - PAIR_0_6_2 <= 1 
PAIR_0_6_2 - X_0_2  <= 0
PAIR_0_6_2 - X_6_2  <= 0

X_0_3 + X_6_3 - PAIR_0_6_3 <= 1 
PAIR_0_6_3 - X_0_3  <= 0
PAIR_0_6_3 - X_6_3  <= 0

X_0_4 + X_6_4 - PAIR_0_6_4 <= 1 
PAIR_0_6_4 - X_0_4  <= 0
PAIR_0_6_4 - X_6_4  <= 0

X_0_5 + X_6_5 - PAIR_0_6_5 <= 1 
PAIR_0_6_5 - X_0_5  <= 0
PAIR_0_6_5 - X_6_5  <= 0

X_0_6 + X_6_6 - PAIR_0_6_6 <= 1 
PAIR_0_6_6 - X_0_6  <= 0
PAIR_0_6_6 - X_6_6  <= 0

X_0_7 + X_6_7 - PAIR_0_6_7 <= 1 
PAIR_0_6_7 - X_0_7  <= 0
PAIR_0_6_7 - X_6_7  <= 0

PAIR_0_6 :PAIR_0_6_0+PAIR_0_6_1+PAIR_0_6_2+PAIR_0_6_3+PAIR_0_6_4+PAIR_0_6_5+PAIR_0_6_6+PAIR_0_6_7 >= 1
X_1_0 + X_4_0 - PAIR_1_4_0 <= 1 
PAIR_1_4_0 - X_1_0  <= 0
PAIR_1_4_0 - X_4_0  <= 0

X_1_1 + X_4_1 - PAIR_1_4_1 <= 1 
PAIR_1_4_1 - X_1_1  <= 0
PAIR_1_4_1 - X_4_1  <= 0

X_1_2 + X_4_2 - PAIR_1_4_2 <= 1 
PAIR_1_4_2 - X_1_2  <= 0
PAIR_1_4_2 - X_4_2  <= 0

X_1_3 + X_4_3 - PAIR_1_4_3 <= 1 
PAIR_1_4_3 - X_1_3  <= 0
PAIR_1_4_3 - X_4_3  <= 0

X_1_4 + X_4_4 - PAIR_1_4_4 <= 1 
PAIR_1_4_4 - X_1_4  <= 0
PAIR_1_4_4 - X_4_4  <= 0

X_1_5 + X_4_5 - PAIR_1_4_5 <= 1 
PAIR_1_4_5 - X_1_5  <= 0
PAIR_1_4_5 - X_4_5  <= 0

X_1_6 + X_4_6 - PAIR_1_4_6 <= 1 
PAIR_1_4_6 - X_1_6  <= 0
PAIR_1_4_6 - X_4_6  <= 0

X_1_7 + X_4_7 - PAIR_1_4_7 <= 1 
PAIR_1_4_7 - X_1_7  <= 0
PAIR_1_4_7 - X_4_7  <= 0

PAIR_1_4 :PAIR_1_4_0+PAIR_1_4_1+PAIR_1_4_2+PAIR_1_4_3+PAIR_1_4_4+PAIR_1_4_5+PAIR_1_4_6+PAIR_1_4_7 >= 1
X_1_0 + X_6_0 - PAIR_1_6_0 <= 1 
PAIR_1_6_0 - X_1_0  <= 0
PAIR_1_6_0 - X_6_0  <= 0

X_1_1 + X_6_1 - PAIR_1_6_1 <= 1 
PAIR_1_6_1 - X_1_1  <= 0
PAIR_1_6_1 - X_6_1  <= 0

X_1_2 + X_6_2 - PAIR_1_6_2 <= 1 
PAIR_1_6_2 - X_1_2  <= 0
PAIR_1_6_2 - X_6_2  <= 0

X_1_3 + X_6_3 - PAIR_1_6_3 <= 1 
PAIR_1_6_3 - X_1_3  <= 0
PAIR_1_6_3 - X_6_3  <= 0

X_1_4 + X_6_4 - PAIR_1_6_4 <= 1 
PAIR_1_6_4 - X_1_4  <= 0
PAIR_1_6_4 - X_6_4  <= 0

X_1_5 + X_6_5 - PAIR_1_6_5 <= 1 
PAIR_1_6_5 - X_1_5  <= 0
PAIR_1_6_5 - X_6_5  <= 0

X_1_6 + X_6_6 - PAIR_1_6_6 <= 1 
PAIR_1_6_6 - X_1_6  <= 0
PAIR_1_6_6 - X_6_6  <= 0

X_1_7 + X_6_7 - PAIR_1_6_7 <= 1 
PAIR_1_6_7 - X_1_7  <= 0
PAIR_1_6_7 - X_6_7  <= 0

PAIR_1_6 :PAIR_1_6_0+PAIR_1_6_1+PAIR_1_6_2+PAIR_1_6_3+PAIR_1_6_4+PAIR_1_6_5+PAIR_1_6_6+PAIR_1_6_7 >= 1
X_1_0 + X_7_0 - PAIR_1_7_0 <= 1 
PAIR_1_7_0 - X_1_0  <= 0
PAIR_1_7_0 - X_7_0  <= 0

X_1_1 + X_7_1 - PAIR_1_7_1 <= 1 
PAIR_1_7_1 - X_1_1  <= 0
PAIR_1_7_1 - X_7_1  <= 0

X_1_2 + X_7_2 - PAIR_1_7_2 <= 1 
PAIR_1_7_2 - X_1_2  <= 0
PAIR_1_7_2 - X_7_2  <= 0

X_1_3 + X_7_3 - PAIR_1_7_3 <= 1 
PAIR_1_7_3 - X_1_3  <= 0
PAIR_1_7_3 - X_7_3  <= 0

X_1_4 + X_7_4 - PAIR_1_7_4 <= 1 
PAIR_1_7_4 - X_1_4  <= 0
PAIR_1_7_4 - X_7_4  <= 0

X_1_5 + X_7_5 - PAIR_1_7_5 <= 1 
PAIR_1_7_5 - X_1_5  <= 0
PAIR_1_7_5 - X_7_5  <= 0

X_1_6 + X_7_6 - PAIR_1_7_6 <= 1 
PAIR_1_7_6 - X_1_6  <= 0
PAIR_1_7_6 - X_7_6  <= 0

X_1_7 + X_7_7 - PAIR_1_7_7 <= 1 
PAIR_1_7_7 - X_1_7  <= 0
PAIR_1_7_7 - X_7_7  <= 0

PAIR_1_7 :PAIR_1_7_0+PAIR_1_7_1+PAIR_1_7_2+PAIR_1_7_3+PAIR_1_7_4+PAIR_1_7_5+PAIR_1_7_6+PAIR_1_7_7 >= 1
X_2_0 + X_4_0 - PAIR_2_4_0 <= 1 
PAIR_2_4_0 - X_2_0  <= 0
PAIR_2_4_0 - X_4_0  <= 0

X_2_1 + X_4_1 - PAIR_2_4_1 <= 1 
PAIR_2_4_1 - X_2_1  <= 0
PAIR_2_4_1 - X_4_1  <= 0

X_2_2 + X_4_2 - PAIR_2_4_2 <= 1 
PAIR_2_4_2 - X_2_2  <= 0
PAIR_2_4_2 - X_4_2  <= 0

X_2_3 + X_4_3 - PAIR_2_4_3 <= 1 
PAIR_2_4_3 - X_2_3  <= 0
PAIR_2_4_3 - X_4_3  <= 0

X_2_4 + X_4_4 - PAIR_2_4_4 <= 1 
PAIR_2_4_4 - X_2_4  <= 0
PAIR_2_4_4 - X_4_4  <= 0

X_2_5 + X_4_5 - PAIR_2_4_5 <= 1 
PAIR_2_4_5 - X_2_5  <= 0
PAIR_2_4_5 - X_4_5  <= 0

X_2_6 + X_4_6 - PAIR_2_4_6 <= 1 
PAIR_2_4_6 - X_2_6  <= 0
PAIR_2_4_6 - X_4_6  <= 0

X_2_7 + X_4_7 - PAIR_2_4_7 <= 1 
PAIR_2_4_7 - X_2_7  <= 0
PAIR_2_4_7 - X_4_7  <= 0

PAIR_2_4 :PAIR_2_4_0+PAIR_2_4_1+PAIR_2_4_2+PAIR_2_4_3+PAIR_2_4_4+PAIR_2_4_5+PAIR_2_4_6+PAIR_2_4_7 >= 1
X_2_0 + X_5_0 - PAIR_2_5_0 <= 1 
PAIR_2_5_0 - X_2_0  <= 0
PAIR_2_5_0 - X_5_0  <= 0

X_2_1 + X_5_1 - PAIR_2_5_1 <= 1 
PAIR_2_5_1 - X_2_1  <= 0
PAIR_2_5_1 - X_5_1  <= 0

X_2_2 + X_5_2 - PAIR_2_5_2 <= 1 
PAIR_2_5_2 - X_2_2  <= 0
PAIR_2_5_2 - X_5_2  <= 0

X_2_3 + X_5_3 - PAIR_2_5_3 <= 1 
PAIR_2_5_3 - X_2_3  <= 0
PAIR_2_5_3 - X_5_3  <= 0

X_2_4 + X_5_4 - PAIR_2_5_4 <= 1 
PAIR_2_5_4 - X_2_4  <= 0
PAIR_2_5_4 - X_5_4  <= 0

X_2_5 + X_5_5 - PAIR_2_5_5 <= 1 
PAIR_2_5_5 - X_2_5  <= 0
PAIR_2_5_5 - X_5_5  <= 0

X_2_6 + X_5_6 - PAIR_2_5_6 <= 1 
PAIR_2_5_6 - X_2_6  <= 0
PAIR_2_5_6 - X_5_6  <= 0

X_2_7 + X_5_7 - PAIR_2_5_7 <= 1 
PAIR_2_5_7 - X_2_7  <= 0
PAIR_2_5_7 - X_5_7  <= 0

PAIR_2_5 :PAIR_2_5_0+PAIR_2_5_1+PAIR_2_5_2+PAIR_2_5_3+PAIR_2_5_4+PAIR_2_5_5+PAIR_2_5_6+PAIR_2_5_7 >= 1
X_2_0 + X_7_0 - PAIR_2_7_0 <= 1 
PAIR_2_7_0 - X_2_0  <= 0
PAIR_2_7_0 - X_7_0  <= 0

X_2_1 + X_7_1 - PAIR_2_7_1 <= 1 
PAIR_2_7_1 - X_2_1  <= 0
PAIR_2_7_1 - X_7_1  <= 0

X_2_2 + X_7_2 - PAIR_2_7_2 <= 1 
PAIR_2_7_2 - X_2_2  <= 0
PAIR_2_7_2 - X_7_2  <= 0

X_2_3 + X_7_3 - PAIR_2_7_3 <= 1 
PAIR_2_7_3 - X_2_3  <= 0
PAIR_2_7_3 - X_7_3  <= 0

X_2_4 + X_7_4 - PAIR_2_7_4 <= 1 
PAIR_2_7_4 - X_2_4  <= 0
PAIR_2_7_4 - X_7_4  <= 0

X_2_5 + X_7_5 - PAIR_2_7_5 <= 1 
PAIR_2_7_5 - X_2_5  <= 0
PAIR_2_7_5 - X_7_5  <= 0

X_2_6 + X_7_6 - PAIR_2_7_6 <= 1 
PAIR_2_7_6 - X_2_6  <= 0
PAIR_2_7_6 - X_7_6  <= 0

X_2_7 + X_7_7 - PAIR_2_7_7 <= 1 
PAIR_2_7_7 - X_2_7  <= 0
PAIR_2_7_7 - X_7_7  <= 0

PAIR_2_7 :PAIR_2_7_0+PAIR_2_7_1+PAIR_2_7_2+PAIR_2_7_3+PAIR_2_7_4+PAIR_2_7_5+PAIR_2_7_6+PAIR_2_7_7 >= 1
X_3_0 + X_4_0 - PAIR_3_4_0 <= 1 
PAIR_3_4_0 - X_3_0  <= 0
PAIR_3_4_0 - X_4_0  <= 0

X_3_1 + X_4_1 - PAIR_3_4_1 <= 1 
PAIR_3_4_1 - X_3_1  <= 0
PAIR_3_4_1 - X_4_1  <= 0

X_3_2 + X_4_2 - PAIR_3_4_2 <= 1 
PAIR_3_4_2 - X_3_2  <= 0
PAIR_3_4_2 - X_4_2  <= 0

X_3_3 + X_4_3 - PAIR_3_4_3 <= 1 
PAIR_3_4_3 - X_3_3  <= 0
PAIR_3_4_3 - X_4_3  <= 0

X_3_4 + X_4_4 - PAIR_3_4_4 <= 1 
PAIR_3_4_4 - X_3_4  <= 0
PAIR_3_4_4 - X_4_4  <= 0

X_3_5 + X_4_5 - PAIR_3_4_5 <= 1 
PAIR_3_4_5 - X_3_5  <= 0
PAIR_3_4_5 - X_4_5  <= 0

X_3_6 + X_4_6 - PAIR_3_4_6 <= 1 
PAIR_3_4_6 - X_3_6  <= 0
PAIR_3_4_6 - X_4_6  <= 0

X_3_7 + X_4_7 - PAIR_3_4_7 <= 1 
PAIR_3_4_7 - X_3_7  <= 0
PAIR_3_4_7 - X_4_7  <= 0

PAIR_3_4 :PAIR_3_4_0+PAIR_3_4_1+PAIR_3_4_2+PAIR_3_4_3+PAIR_3_4_4+PAIR_3_4_5+PAIR_3_4_6+PAIR_3_4_7 >= 1
X_3_0 + X_6_0 - PAIR_3_6_0 <= 1 
PAIR_3_6_0 - X_3_0  <= 0
PAIR_3_6_0 - X_6_0  <= 0

X_3_1 + X_6_1 - PAIR_3_6_1 <= 1 
PAIR_3_6_1 - X_3_1  <= 0
PAIR_3_6_1 - X_6_1  <= 0

X_3_2 + X_6_2 - PAIR_3_6_2 <= 1 
PAIR_3_6_2 - X_3_2  <= 0
PAIR_3_6_2 - X_6_2  <= 0

X_3_3 + X_6_3 - PAIR_3_6_3 <= 1 
PAIR_3_6_3 - X_3_3  <= 0
PAIR_3_6_3 - X_6_3  <= 0

X_3_4 + X_6_4 - PAIR_3_6_4 <= 1 
PAIR_3_6_4 - X_3_4  <= 0
PAIR_3_6_4 - X_6_4  <= 0

X_3_5 + X_6_5 - PAIR_3_6_5 <= 1 
PAIR_3_6_5 - X_3_5  <= 0
PAIR_3_6_5 - X_6_5  <= 0

X_3_6 + X_6_6 - PAIR_3_6_6 <= 1 
PAIR_3_6_6 - X_3_6  <= 0
PAIR_3_6_6 - X_6_6  <= 0

X_3_7 + X_6_7 - PAIR_3_6_7 <= 1 
PAIR_3_6_7 - X_3_7  <= 0
PAIR_3_6_7 - X_6_7  <= 0

PAIR_3_6 :PAIR_3_6_0+PAIR_3_6_1+PAIR_3_6_2+PAIR_3_6_3+PAIR_3_6_4+PAIR_3_6_5+PAIR_3_6_6+PAIR_3_6_7 >= 1
X_5_0 + X_6_0 - PAIR_5_6_0 <= 1 
PAIR_5_6_0 - X_5_0  <= 0
PAIR_5_6_0 - X_6_0  <= 0

X_5_1 + X_6_1 - PAIR_5_6_1 <= 1 
PAIR_5_6_1 - X_5_1  <= 0
PAIR_5_6_1 - X_6_1  <= 0

X_5_2 + X_6_2 - PAIR_5_6_2 <= 1 
PAIR_5_6_2 - X_5_2  <= 0
PAIR_5_6_2 - X_6_2  <= 0

X_5_3 + X_6_3 - PAIR_5_6_3 <= 1 
PAIR_5_6_3 - X_5_3  <= 0
PAIR_5_6_3 - X_6_3  <= 0

X_5_4 + X_6_4 - PAIR_5_6_4 <= 1 
PAIR_5_6_4 - X_5_4  <= 0
PAIR_5_6_4 - X_6_4  <= 0

X_5_5 + X_6_5 - PAIR_5_6_5 <= 1 
PAIR_5_6_5 - X_5_5  <= 0
PAIR_5_6_5 - X_6_5  <= 0

X_5_6 + X_6_6 - PAIR_5_6_6 <= 1 
PAIR_5_6_6 - X_5_6  <= 0
PAIR_5_6_6 - X_6_6  <= 0

X_5_7 + X_6_7 - PAIR_5_6_7 <= 1 
PAIR_5_6_7 - X_5_7  <= 0
PAIR_5_6_7 - X_6_7  <= 0

PAIR_5_6 :PAIR_5_6_0+PAIR_5_6_1+PAIR_5_6_2+PAIR_5_6_3+PAIR_5_6_4+PAIR_5_6_5+PAIR_5_6_6+PAIR_5_6_7 >= 1
X_6_0 + X_7_0 - PAIR_6_7_0 <= 1 
PAIR_6_7_0 - X_6_0  <= 0
PAIR_6_7_0 - X_7_0  <= 0

X_6_1 + X_7_1 - PAIR_6_7_1 <= 1 
PAIR_6_7_1 - X_6_1  <= 0
PAIR_6_7_1 - X_7_1  <= 0

X_6_2 + X_7_2 - PAIR_6_7_2 <= 1 
PAIR_6_7_2 - X_6_2  <= 0
PAIR_6_7_2 - X_7_2  <= 0

X_6_3 + X_7_3 - PAIR_6_7_3 <= 1 
PAIR_6_7_3 - X_6_3  <= 0
PAIR_6_7_3 - X_7_3  <= 0

X_6_4 + X_7_4 - PAIR_6_7_4 <= 1 
PAIR_6_7_4 - X_6_4  <= 0
PAIR_6_7_4 - X_7_4  <= 0

X_6_5 + X_7_5 - PAIR_6_7_5 <= 1 
PAIR_6_7_5 - X_6_5  <= 0
PAIR_6_7_5 - X_7_5  <= 0

X_6_6 + X_7_6 - PAIR_6_7_6 <= 1 
PAIR_6_7_6 - X_6_6  <= 0
PAIR_6_7_6 - X_7_6  <= 0

X_6_7 + X_7_7 - PAIR_6_7_7 <= 1 
PAIR_6_7_7 - X_6_7  <= 0
PAIR_6_7_7 - X_7_7  <= 0

PAIR_6_7 :PAIR_6_7_0+PAIR_6_7_1+PAIR_6_7_2+PAIR_6_7_3+PAIR_6_7_4+PAIR_6_7_5+PAIR_6_7_6+PAIR_6_7_7 >= 1
X_0_0+X_0_1+X_0_2+X_0_3+X_0_4+X_0_5+X_0_6+X_0_7 >= 1
X_1_0+X_1_1+X_1_2+X_1_3+X_1_4+X_1_5+X_1_6+X_1_7 >= 1
X_2_0+X_2_1+X_2_2+X_2_3+X_2_4+X_2_5+X_2_6+X_2_7 >= 1
X_3_0+X_3_1+X_3_2+X_3_3+X_3_4+X_3_5+X_3_6+X_3_7 >= 1
X_4_0+X_4_1+X_4_2+X_4_3+X_4_4+X_4_5+X_4_6+X_4_7 >= 1
X_5_0+X_5_1+X_5_2+X_5_3+X_5_4+X_5_5+X_5_6+X_5_7 >= 1
X_6_0+X_6_1+X_6_2+X_6_3+X_6_4+X_6_5+X_6_6+X_6_7 >= 1
X_7_0+X_7_1+X_7_2+X_7_3+X_7_4+X_7_5+X_7_6+X_7_7 >= 1
Bagsize0:X_0_0 +X_1_0 +X_2_0 +X_3_0 +X_4_0 +X_5_0 +X_6_0 +X_7_0 - X_0_1- X_1_1- X_2_1- X_3_1- X_4_1- X_5_1- X_6_1- X_7_1 >= 0
Bagsize1:X_0_1 +X_1_1 +X_2_1 +X_3_1 +X_4_1 +X_5_1 +X_6_1 +X_7_1 - X_0_2- X_1_2- X_2_2- X_3_2- X_4_2- X_5_2- X_6_2- X_7_2 >= 0
Bagsize2:X_0_2 +X_1_2 +X_2_2 +X_3_2 +X_4_2 +X_5_2 +X_6_2 +X_7_2 - X_0_3- X_1_3- X_2_3- X_3_3- X_4_3- X_5_3- X_6_3- X_7_3 >= 0
Bagsize3:X_0_3 +X_1_3 +X_2_3 +X_3_3 +X_4_3 +X_5_3 +X_6_3 +X_7_3 - X_0_4- X_1_4- X_2_4- X_3_4- X_4_4- X_5_4- X_6_4- X_7_4 >= 0
Bagsize4:X_0_4 +X_1_4 +X_2_4 +X_3_4 +X_4_4 +X_5_4 +X_6_4 +X_7_4 - X_0_5- X_1_5- X_2_5- X_3_5- X_4_5- X_5_5- X_6_5- X_7_5 >= 0
Bagsize5:X_0_5 +X_1_5 +X_2_5 +X_3_5 +X_4_5 +X_5_5 +X_6_5 +X_7_5 - X_0_6- X_1_6- X_2_6- X_3_6- X_4_6- X_5_6- X_6_6- X_7_6 >= 0
Bagsize6:X_0_6 +X_1_6 +X_2_6 +X_3_6 +X_4_6 +X_5_6 +X_6_6 +X_7_6 - X_0_7- X_1_7- X_2_7- X_3_7- X_4_7- X_5_7- X_6_7- X_7_7 >= 0
Bounds 

General 

Binary 
X_0_0 
X_1_0 
X_2_0 
X_3_0 
X_4_0 
X_5_0 
X_6_0 
X_7_0 
A_0_0 
A_0_1 
A_0_2 
A_0_3 
A_0_4 
A_0_5 
A_0_6 
A_1_0 
A_1_1 
A_1_2 
A_1_3 
A_1_4 
A_1_5 
A_1_6 
A_2_0 
A_2_1 
A_2_2 
A_2_3 
A_2_4 
A_2_5 
A_2_6 
A_3_0 
A_3_1 
A_3_2 
A_3_3 
A_3_4 
A_3_5 
A_3_6 
A_4_0 
A_4_1 
A_4_2 
A_4_3 
A_4_4 
A_4_5 
A_4_6 
A_5_0 
A_5_1 
A_5_2 
A_5_3 
A_5_4 
A_5_5 
A_5_6 
A_6_0 
A_6_1 
A_6_2 
A_6_3 
A_6_4 
A_6_5 
A_6_6 
A_7_0 
A_7_1 
A_7_2 
A_7_3 
A_7_4 
A_7_5 
A_7_6 
PAIR_0_1_0 
PAIR_0_1_1 
PAIR_0_1_2 
PAIR_0_1_3 
PAIR_0_1_4 
PAIR_0_1_5 
PAIR_0_1_6 
PAIR_0_1_7 
PAIR_0_2_0 
PAIR_0_2_1 
PAIR_0_2_2 
PAIR_0_2_3 
PAIR_0_2_4 
PAIR_0_2_5 
PAIR_0_2_6 
PAIR_0_2_7 
PAIR_0_3_0 
PAIR_0_3_1 
PAIR_0_3_2 
PAIR_0_3_3 
PAIR_0_3_4 
PAIR_0_3_5 
PAIR_0_3_6 
PAIR_0_3_7 
PAIR_0_4_0 
PAIR_0_4_1 
PAIR_0_4_2 
PAIR_0_4_3 
PAIR_0_4_4 
PAIR_0_4_5 
PAIR_0_4_6 
PAIR_0_4_7 
PAIR_0_6_0 
PAIR_0_6_1 
PAIR_0_6_2 
PAIR_0_6_3 
PAIR_0_6_4 
PAIR_0_6_5 
PAIR_0_6_6 
PAIR_0_6_7 
PAIR_1_4_0 
PAIR_1_4_1 
PAIR_1_4_2 
PAIR_1_4_3 
PAIR_1_4_4 
PAIR_1_4_5 
PAIR_1_4_6 
PAIR_1_4_7 
PAIR_1_6_0 
PAIR_1_6_1 
PAIR_1_6_2 
PAIR_1_6_3 
PAIR_1_6_4 
PAIR_1_6_5 
PAIR_1_6_6 
PAIR_1_6_7 
PAIR_1_7_0 
PAIR_1_7_1 
PAIR_1_7_2 
PAIR_1_7_3 
PAIR_1_7_4 
PAIR_1_7_5 
PAIR_1_7_6 
PAIR_1_7_7 
PAIR_2_4_0 
PAIR_2_4_1 
PAIR_2_4_2 
PAIR_2_4_3 
PAIR_2_4_4 
PAIR_2_4_5 
PAIR_2_4_6 
PAIR_2_4_7 
PAIR_2_5_0 
PAIR_2_5_1 
PAIR_2_5_2 
PAIR_2_5_3 
PAIR_2_5_4 
PAIR_2_5_5 
PAIR_2_5_6 
PAIR_2_5_7 
PAIR_2_7_0 
PAIR_2_7_1 
PAIR_2_7_2 
PAIR_2_7_3 
PAIR_2_7_4 
PAIR_2_7_5 
PAIR_2_7_6 
PAIR_2_7_7 
PAIR_3_4_0 
PAIR_3_4_1 
PAIR_3_4_2 
PAIR_3_4_3 
PAIR_3_4_4 
PAIR_3_4_5 
PAIR_3_4_6 
PAIR_3_4_7 
PAIR_3_6_0 
PAIR_3_6_1 
PAIR_3_6_2 
PAIR_3_6_3 
PAIR_3_6_4 
PAIR_3_6_5 
PAIR_3_6_6 
PAIR_3_6_7 
PAIR_5_6_0 
PAIR_5_6_1 
PAIR_5_6_2 
PAIR_5_6_3 
PAIR_5_6_4 
PAIR_5_6_5 
PAIR_5_6_6 
PAIR_5_6_7 
PAIR_6_7_0 
PAIR_6_7_1 
PAIR_6_7_2 
PAIR_6_7_3 
PAIR_6_7_4 
PAIR_6_7_5 
PAIR_6_7_6 
PAIR_6_7_7 
X_0_1 
X_0_2 
X_0_3 
X_0_4 
X_0_5 
X_0_6 
X_0_7 
X_1_1 
X_1_2 
X_1_3 
X_1_4 
X_1_5 
X_1_6 
X_1_7 
X_2_1 
X_2_2 
X_2_3 
X_2_4 
X_2_5 
X_2_6 
X_2_7 
X_3_1 
X_3_2 
X_3_3 
X_3_4 
X_3_5 
X_3_6 
X_3_7 
X_4_1 
X_4_2 
X_4_3 
X_4_4 
X_4_5 
X_4_6 
X_4_7 
X_5_1 
X_5_2 
X_5_3 
X_5_4 
X_5_5 
X_5_6 
X_5_7 
X_6_1 
X_6_2 
X_6_3 
X_6_4 
X_6_5 
X_6_6 
X_6_7 
X_7_1 
X_7_2 
X_7_3 
X_7_4 
X_7_5 
X_7_6 
X_7_7 

End 
